n_elements = 12;
n_sets = 9;
costs = [1, 1, 1, 1, 1, 1, 1, 1, 1];
sets = [{1, 2, 6, 9}, {0, 2, 7, 10}, {0, 1, 8, 11}, {0, 4, 5, 9}, {1, 3, 5, 10}, {2, 3, 4, 11}, {3, 7, 8, 9}, {4, 6, 8, 10}, {5, 6, 7, 11}];